Copyright (C) 2013-2015, Filipe Brandao
Build (method = -2)
  #dp: 32549
  Step-3' Graph: 553 vertices and 10913 arcs (0.12s)
  Step-4' Graph: 492 vertices and 10791 arcs (0.13s)
  #V4/#V3 = 0.89
  #A4/#A3 = 0.99
Ready! (0.13s)
Optimize a model with 547 rows, 10792 columns and 31403 nonzeros
Presolve removed 5 rows and 9 columns
Presolve time: 0.04s
Presolved: 542 rows, 10783 columns, 31385 nonzeros
Variable types: 0 continuous, 10783 integer (0 binary)
Optimize a model with 542 rows, 10783 columns and 31385 nonzeros
Presolved: 542 rows, 10783 columns, 31385 nonzeros

Root barrier log...

Ordering time: 0.00s

Barrier statistics:
 AA' NZ     : 1.960e+04
 Factor NZ  : 5.510e+04 (roughly 5 MBytes of memory)
 Factor Ops : 7.355e+06 (less than 1 second per iteration)
 Threads    : 1

                  Objective                Residual
Iter       Primal          Dual         Primal    Dual     Compl     Time
   0   1.92597411e+04 -6.06682351e+05  2.99e+05 2.22e-16  2.26e+02     0s
   1   6.09096565e+03 -1.30301691e+05  6.39e+04 7.77e-16  4.65e+01     0s
   2   1.40313833e+03 -6.36331281e+04  9.95e+03 3.24e-14  8.76e+00     0s
   3   5.86485575e+02 -1.99869685e+04  9.58e+02 2.75e-14  1.38e+00     0s
   4   5.12048339e+02 -1.02818254e+04  1.51e+02 2.22e-14  5.53e-01     0s
   5   4.97296444e+02 -2.79086440e+03  7.04e-01 7.33e-15  1.52e-01     0s
   6   4.75504719e+02 -1.76670871e+03  1.70e-03 4.77e-15  1.04e-01     0s
   7   4.27403428e+02 -1.43385786e+03  1.35e-03 3.77e-15  8.61e-02     0s
   8   2.86534761e+02 -5.20423683e+02  7.56e-04 1.11e-15  3.73e-02     0s
   9   1.54145973e+02 -1.88337537e+02  2.67e-04 7.43e-16  1.58e-02     0s
  10   1.19334586e+02 -1.13429678e+02  1.86e-04 7.22e-16  1.08e-02     0s
  11   1.00608552e+02 -5.90258573e+01  1.25e-04 7.32e-16  7.38e-03     0s
  12   9.06184013e+01 -3.36095092e+00  7.78e-05 6.29e-16  4.35e-03     0s
  13   8.67317293e+01  3.19568517e+01  5.11e-05 7.54e-16  2.53e-03     0s
  14   7.60974661e+01  6.01978047e+01  1.34e-05 7.21e-16  7.35e-04     0s
  15   7.32096902e+01  6.50072220e+01  5.80e-06 6.63e-16  3.79e-04     0s
  16   7.23312020e+01  6.73630140e+01  3.62e-06 7.48e-16  2.30e-04     0s
  17   7.16781784e+01  6.84318550e+01  2.25e-06 5.91e-16  1.50e-04     0s
  18   7.11926144e+01  6.91634665e+01  1.20e-06 7.14e-16  9.39e-05     0s
  19   7.10102038e+01  6.96138276e+01  8.38e-07 8.77e-16  6.46e-05     0s
  20   7.07844697e+01  7.02536280e+01  3.30e-07 7.20e-16  2.46e-05     0s
  21   7.06615264e+01  7.04459052e+01  7.06e-08 5.93e-16  9.97e-06     0s
  22   7.06445236e+01  7.05527595e+01  3.40e-08 6.95e-16  4.24e-06     0s
  23   7.06289821e+01  7.06123674e+01  1.68e-09 7.61e-16  7.68e-07     0s
  24   7.06280224e+01  7.06278675e+01  5.66e-13 7.03e-16  7.16e-09     0s
  25   7.06280000e+01  7.06279999e+01  1.07e-12 7.43e-16  7.16e-12     0s

Barrier solved model in 25 iterations and 0.16 seconds
Optimal objective 7.06280000e+01


Root relaxation: objective 7.062800e+01, 6766 iterations, 0.29 seconds

    Nodes    |    Current Node    |     Objective Bounds      |     Work
 Expl Unexpl |  Obj  Depth IntInf | Incumbent    BestBd   Gap | It/Node Time

     0     0   70.62800    0  176          -   70.62800     -      -    1s
H    0     0                      73.0000000   70.62800  3.25%     -    1s
H    0     0                      71.0000000   70.62800  0.52%     -    2s

Explored 0 nodes (15272 simplex iterations) in 2.52 seconds
Thread count was 1 (of 4 available processors)

Optimal solution found (tolerance 0.00e+00)
Best objective 7.100000000000e+01, best bound 7.100000000000e+01, gap 0.0%
Preprocessing time: 0.15 seconds
Gurobi run time: 2.52 seconds
Total run time: 2.67 seconds
Objective: 71
Solution:
3 x [i=1, i=2, i=7, i=14, i=50, i=55, i=55]
3 x [i=1, i=18, i=21, i=26, i=30, i=41, i=46]
1 x [i=1, i=1, i=13, i=14, i=43, i=43]
3 x [i=2, i=11, i=12, i=13, i=48, i=48, i=49]
3 x [i=2, i=16, i=18, i=28, i=37, i=40, i=43]
1 x [i=2, i=18, i=19, i=33, i=42, i=42]
1 x [i=2, i=23, i=24, i=27, i=35, i=36, i=36]
1 x [i=3, i=4, i=13, i=26, i=35, i=50, i=53]
2 x [i=3, i=8, i=12, i=23, i=44, i=45, i=48]
1 x [i=3, i=8, i=12, i=30, i=40, i=44, i=46]
2 x [i=3, i=11, i=12, i=29, i=35, i=41, i=53]
1 x [i=3, i=18, i=19, i=33, i=33, i=36, i=42]
1 x [i=3, i=22, i=22, i=24, i=30, i=31, i=52]
2 x [i=3, i=23, i=23, i=27, i=30, i=34, i=43]
1 x [i=4, i=6, i=10, i=26, i=34, i=50, i=53]
4 x [i=4, i=6, i=10, i=29, i=38, i=47, i=49]
2 x [i=4, i=6, i=31, i=33, i=34, i=35, i=40]
2 x [i=4, i=4, i=6, i=9, i=50, i=55, i=55]
1 x [i=4, i=4, i=9, i=23, i=48, i=48, i=49]
2 x [i=5, i=6, i=15, i=30, i=31, i=51, i=51]
1 x [i=5, i=9, i=10, i=14, i=48, i=48, i=49]
2 x [i=5, i=9, i=10, i=25, i=38, i=45, i=51]
4 x [i=5, i=9, i=10, i=33, i=36, i=44, i=46]
1 x [i=7, i=8, i=11, i=30, i=38, i=45, i=51]
1 x [i=7, i=8, i=8, i=36, i=40, i=42, i=42]
1 x [i=7, i=11, i=12, i=29, i=40, i=44, i=50]
1 x [i=7, i=11, i=14, i=30, i=37, i=47, i=49]
1 x [i=7, i=11, i=22, i=36, i=37, i=44, i=46]
1 x [i=8, i=8, i=15, i=24, i=41, i=41, i=46]
1 x [i=12, i=19, i=22, i=31, i=34, i=35, i=40]
2 x [i=12, i=25, i=25, i=26, i=28, i=32, i=38]
1 x [i=14, i=15, i=16, i=33, i=34, i=34, i=37]
2 x [i=14, i=17, i=17, i=18, i=34, i=40, i=43]
1 x [i=14, i=38, i=44, i=45, i=48, i=54, i=54, i=55]
1 x [i=15, i=16, i=18, i=21, i=41, i=41, i=46]
1 x [i=15, i=22, i=28, i=33, i=34, i=34, i=37]
2 x [i=16, i=16, i=17, i=17, i=34, i=40, i=43]
2 x [i=18, i=19, i=23, i=24, i=27, i=36, i=36]
1 x [i=20, i=39, i=39, i=44, i=47, i=54, i=54, i=55]
2 x [i=20, i=39, i=39, i=47, i=51, i=52, i=52, i=52]
1 x [i=20, i=42, i=43, i=47, i=48, i=52, i=52, i=52]
4 x [i=22, i=24, i=25, i=25, i=27, i=28, i=32]
